0 2206
1 2183
2 1908
3 1908
4 1908
5 1908
6 1880
7 1839
8 1839
9 1833
10 1759
11 1719
12 1719
13 1690
14 1626
15 1626
16 1590
17 1579
18 1575
19 1563
20 1563
21 1427
22 1427
23 1427
24 1427
25 1427
26 1420
27 1420
28 1420
29 1404
30 1404
31 1404
32 1389
33 1316
34 1316
35 1316
36 1316
37 1316
38 1288
39 1288
40 1288
41 1288
42 1280
43 1280
44 1280
45 1250
46 1250
47 1247
48 1247
49 1246
50 1246
51 1246
52 1207
53 1207
54 1207
55 1207
56 1204
57 1190
58 1183
59 1183
60 1175
61 1162
62 1162
63 1139
64 1139
65 1131
66 1131
67 1121
68 1107
69 1107
70 1095
71 1095
72 1082
73 1073
74 1073
75 1073
76 1073
77 1073
78 1052
79 1052
80 1052
81 1052
82 1052
83 1052
84 1052
85 1052
86 1052
87 1052
88 1052
89 1052
90 1046
91 1046
92 1046
93 1045
94 1040
95 1040
96 1040
97 1033
98 1033
99 1033
100 1029
101 1020
102 1020
103 1020
104 1020
105 1007
106 1007
107 1006
108 1006
109 997
110 981
111 981
112 981
113 981
114 981
115 981
116 981
117 981
118 968
119 968
120 959
121 959
122 959
123 959
124 959
125 957
126 957
127 957
128 957
129 949
130 949
131 949
132 949
133 947
134 947
135 947
136 947
137 936
138 926
139 926
140 924
141 924
142 924
143 924
144 924
145 924
146 924
147 923
148 909
149 909
150 909
151 909
152 899
153 899
154 899
155 899
156 894
157 883
158 883
159 883
160 883
161 883
162 867
163 867
164 867
165 867
166 867
167 867
168 867
169 867
170 867
171 863
172 863
173 863
174 863
175 863
176 863
177 863
178 863
179 863
180 863
181 863
182 863
183 863
184 863
185 863
186 863
187 863
188 863
189 863
190 863
191 863
192 863
193 863
194 863
195 863
196 863
197 863
198 862
199 862
200 862
201 859
202 859
203 859
204 859
205 859
206 859
207 859
208 859
209 859
210 859
211 859
212 859
213 859
214 859
215 859
216 859
217 859
218 859
219 859
220 859
221 859
222 859
223 859
224 859
225 859
226 859
227 859
228 859
229 859
230 859
231 859
232 859
233 859
234 857
235 857
236 857
237 857
238 857
239 857
240 857
241 857
242 857
243 857
244 857
245 857
246 857
247 857
248 857
249 857
250 857
251 857
252 857
253 857
254 857
255 857
256 857
257 857
258 857
259 857
260 857
261 857
262 857
263 857
264 857
265 857
266 857
267 857
268 857
269 857
270 857
271 857
272 857
273 857
274 857
275 857
276 857
277 857
278 857
279 857
280 857
281 857
282 857
283 857
284 857
285 857
286 857
287 857
288 857
289 857
290 857
291 857
292 857
293 857
294 857
295 857
296 857
297 857
298 857
299 857
300 857
301 857
302 857
303 857
304 857
305 857
306 857
307 857
308 857
309 857
310 857
311 857
312 857
313 857
314 857
315 857
316 857
317 857
318 857
319 857
320 857
321 857
322 857
323 857
324 857
325 857
326 857
327 857
328 857
329 857
330 857
331 857
332 857
333 857
334 857
335 857
336 857
337 857
338 857
339 857
340 857
341 857
342 857
343 857
344 857
345 857
346 857
347 857
348 857
349 857
350 857
351 857
352 857
353 857
354 857
355 857
356 857
357 857
358 857
359 857
360 857
361 857
362 857
363 857
364 857
365 857
366 857
367 857
368 857
369 857
370 857
371 857
372 857
373 857
374 857
375 857
376 857
377 857
378 857
379 857
380 857
381 857
382 857
383 857
384 857
385 857
386 857
387 857
388 857
389 857
390 857
391 857
392 857
393 857
394 857
395 857
396 857
397 857
398 857
399 857
400 857
401 857
402 857
403 857
404 857
405 857
406 857
407 857
408 857
409 857
410 857
411 857
412 857
413 857
414 857
415 857
416 857
417 857
418 857
419 857
420 857
421 857
422 857
423 857
424 857
425 857
426 857
427 857
428 857
429 857
430 857
431 857
432 857
433 857
434 857
435 857
436 857
437 857
438 857
439 857
440 857
441 857
442 857
443 857
444 857
445 857
446 857
447 857
448 857
449 857
450 857
451 857
452 857
453 857
454 857
455 857
456 857
457 857
458 857
459 857
460 857
461 857
462 857
463 857
464 857
465 857
466 857
467 857
468 857
469 857
470 857
471 857
472 857
473 857
474 857
475 857
476 857
477 857
478 857
479 857
480 857
481 857
482 857
483 857
484 857
485 857
486 857
487 857
488 857
489 857
490 857
491 857
492 857
493 857
494 857
495 857
496 857
497 857
498 857
499 857
500 857
501 857
502 857
503 857
504 857
505 857
506 857
507 857
508 857
509 857
510 857
511 857
512 857
513 857
514 857
515 857
516 857
517 857
518 857
519 857
520 857
521 857
522 857
523 857
524 857
525 857
526 857
527 857
528 857
529 857
530 857
531 857
532 857
533 857
534 857
535 857
536 857
537 857
538 857
539 857
540 857
541 857
542 857
543 857
544 857
545 857
546 857
547 857
548 857
549 857
550 857
551 857
552 857
553 857
554 857
555 857
556 857
557 857
558 857
559 857
560 857
561 857
562 857
563 857
564 857
565 857
566 857
567 857
568 857
569 857
570 857
571 857
572 857
573 857
574 857
575 857
576 857
577 857
578 857
579 857
580 857
581 857
582 857
583 857
584 857
585 857
586 857
587 857
588 857
589 857
590 857
591 857
592 857
593 857
594 857
595 857
596 857
597 857
598 857
599 857
600 857
601 857
602 857
603 857
604 857
605 857
606 857
607 857
608 857
609 857
610 857
611 857
612 857
613 857
614 857
615 857
616 857
617 857
618 857
619 857
620 857
621 857
622 857
623 857
624 857
625 857
626 857
627 857
628 857
629 857
630 857
631 857
632 857
633 857
634 857
635 857
636 857
637 857
638 857
639 857
640 857
641 857
642 857
643 857
644 857
645 857
646 857
647 857
648 857
649 857
650 857
651 857
652 857
653 857
654 857
655 857
656 857
657 857
658 857
659 857
660 857
661 857
662 857
663 857
664 857
665 857
666 857
667 857
668 857
669 857
670 857
671 857
672 857
673 857
674 857
675 857
676 857
677 857
678 857
679 857
680 857
681 857
682 857
683 857
684 857
685 857
686 857
687 857
688 857
689 857
690 857
691 857
692 857
693 857
694 857
695 857
696 857
697 857
698 857
699 857
700 857
701 857
702 857
703 857
704 857
705 857
706 857
707 857
708 857
709 857
710 857
711 857
712 857
713 857
714 857
715 857
716 857
717 857
718 857
719 857
720 857
721 857
722 857
723 857
724 857
725 857
726 857
727 857
728 857
729 857
730 857
731 857
732 857
733 857
734 857
735 857
736 857
737 857
738 857
739 857
740 857
741 857
742 857
743 857
744 857
745 857
746 857
747 857
748 857
749 857
750 857
751 857
752 857
753 857
754 857
755 857
756 857
757 857
758 857
759 857
760 857
761 857
762 857
763 857
764 857
765 857
766 857
767 857
768 857
769 857
770 857
771 857
772 857
773 857
774 857
775 857
776 857
777 857
778 857
779 857
780 857
781 857
782 857
783 857
784 857
785 857
786 857
787 857
788 857
789 857
790 857
791 857
792 857
793 857
794 857
795 857
796 857
797 857
798 857
799 857
800 857
801 857
802 857
803 857
804 857
805 857
806 857
807 857
808 857
809 857
810 857
811 857
812 857
813 857
814 857
815 857
816 857
817 857
818 857
819 857
820 857
821 857
822 857
823 857
824 857
825 857
826 857
827 857
828 857
829 857
830 857
831 857
832 857
833 857
834 857
835 857
836 857
837 857
838 857
839 857
840 857
841 857
842 857
843 857
844 857
845 857
846 857
847 857
848 857
849 857
850 857
851 857
852 857
853 857
854 857
855 857
856 857
857 857
858 857
859 857
860 857
861 857
862 857
863 857
864 857
865 857
866 857
867 857
868 857
869 857
870 857
871 857
872 857
873 857
874 857
875 857
876 857
877 857
878 857
879 857
880 857
881 857
882 857
883 857
884 857
885 857
886 857
887 857
888 857
889 857
890 857
891 857
892 857
893 857
894 857
895 857
896 857
897 857
898 857
899 857
900 857
901 857
902 857
903 857
904 857
905 857
906 857
907 857
908 857
909 857
910 857
911 857
912 857
913 857
914 857
915 857
916 857
917 857
918 857
919 857
920 857
921 857
922 857
923 857
924 857
925 857
926 857
927 857
928 857
929 857
930 857
931 857
932 857
933 857
934 857
935 857
936 857
937 857
938 857
939 857
940 857
941 857
942 857
943 857
944 857
945 857
946 857
947 857
948 857
949 857
950 857
951 857
952 857
953 857
954 857
955 857
956 857
957 857
958 857
959 857
960 857
961 857
962 857
963 857
964 857
965 857
966 857
967 857
968 857
969 857
970 857
971 857
972 857
973 857
974 857
975 857
976 857
977 857
978 857
979 857
980 857
981 857
982 857
983 857
984 857
985 857
986 857
987 857
988 857
989 857
990 857
991 857
992 857
993 857
994 857
995 857
996 857
997 857
998 857
999 857
Best: [[30,16,23,10,29,24,3,4],
       [25,28],
       [15,19,9,5,12,11,26,6,21],
       [27,14,22,32,20,18,7],
       [31,17,8,2,13]], fitness: 857
